p edge 26 104
e 1 12
e 1 14
e 1 18
e 1 23
e 2 3
e 2 8
e 2 13
e 2 17
e 3 1
e 3 4
e 3 18
e 3 26
e 4 11
e 4 11
e 4 15
e 4 23
e 5 4
e 5 8
e 5 9
e 5 25
e 6 3
e 6 4
e 6 17
e 6 19
e 7 4
e 7 10
e 7 18
e 7 24
e 8 6
e 8 13
e 8 15
e 8 23
e 9 10
e 9 18
e 9 19
e 9 24
e 10 2
e 10 4
e 10 12
e 10 25
e 11 2
e 11 5
e 11 6
e 11 19
e 12 1
e 12 2
e 12 3
e 12 18
e 13 3
e 13 5
e 13 14
e 13 25
e 14 4
e 14 7
e 14 7
e 14 25
e 15 11
e 15 16
e 15 24
e 15 24
e 16 5
e 16 12
e 16 15
e 16 18
e 17 12
e 17 12
e 17 13
e 17 14
e 18 1
e 18 16
e 18 16
e 18 17
e 19 6
e 19 8
e 19 11
e 19 23
e 20 11
e 20 13
e 20 15
e 20 16
e 21 3
e 21 8
e 21 15
e 21 17
e 22 11
e 22 14
e 22 14
e 22 23
e 23 5
e 23 8
e 23 19
e 23 21
e 24 2
e 24 7
e 24 13
e 24 17
e 25 2
e 25 3
e 25 17
e 25 21
e 26 9
e 26 10
e 26 10
e 26 12
